c 1 TREE_STRUCTURE		
c 2 LOGGING
c 3 CUT_WHATEVER
c 4 CUT_NO_DEPARTMENT
c 5 CUT_NO_MANAGER
c 6 GUI
c 7 PRECEDENCE
c 8 TOTAL_WALKER
c 9 TOTAL_REDUCER
c 10 ACCESS_CONTROL
p cnf 10 5
-3 -4 -5 0 
-3 -4 0 
-4 -5 0 
-5 -3 0
-8 -9 0